DIMACS_lns/graph-1000-467.col
p edge 1000 1840
e 1 261
e 1 329
e 1 1000
e 1 586
e 2 702
e 2 719
e 2 372
e 2 812
e 2 483
e 2 243
e 3 280
e 3 432
e 3 406
e 4 647
e 4 525
e 4 412
e 5 534
e 5 637
e 5 884
e 5 478
e 7 559
e 7 768
e 7 235
e 7 355
e 9 573
e 9 822
e 9 80
e 9 445
e 9 320
e 9 236
e 11 581
e 11 139
e 11 228
e 11 406
e 11 298
e 11 721
e 11 328
e 11 783
e 12 136
e 12 656
e 12 345
e 12 384
e 12 630
e 16 225
e 16 123
e 16 214
e 16 238
e 17 555
e 17 729
e 17 827
e 17 601
e 17 871
e 17 260
e 17 794
e 18 834
e 18 433
e 18 328
e 18 905
e 18 393
e 19 806
e 19 268
e 19 631
e 19 359
e 19 601
e 19 793
e 19 756
e 19 216
e 19 623
e 19 311
e 21 381
e 21 96
e 21 326
e 21 501
e 22 156
e 22 253
e 22 514
e 22 445
e 22 577
e 23 262
e 23 816
e 23 585
e 23 932
e 24 33
e 24 529
e 24 812
e 24 197
e 25 600
e 25 288
e 25 617
e 26 654
e 26 986
e 26 157
e 26 589
e 26 89
e 28 383
e 28 865
e 28 48
e 28 893
e 29 570
e 29 816
e 29 263
e 29 178
e 30 695
e 30 688
e 30 744
e 30 512
e 30 410
e 30 38
e 30 242
e 30 690
e 31 928
e 31 279
e 31 694
e 31 725
e 31 183
e 31 54
e 31 973
e 31 434
e 31 137
e 31 174
e 31 125
e 31 863
e 31 493
e 32 855
e 32 210
e 32 790
e 32 50
e 32 914
e 32 457
e 32 41
e 32 797
e 32 531
e 33 929
e 33 213
e 33 503
e 33 710
e 33 751
e 34 151
e 34 990
e 34 255
e 34 593
e 34 676
e 35 214
e 35 37
e 35 497
e 36 902
e 36 109
e 36 891
e 36 939
e 36 888
e 36 386
e 37 699
e 37 554
e 37 447
e 37 361
e 37 965
e 37 625
e 38 122
e 38 209
e 38 330
e 38 793
e 39 426
e 39 769
e 39 43
e 39 507
e 39 790
e 39 614
e 39 485
e 41 235
e 41 577
e 41 729
e 41 894
e 41 834
e 41 723
e 41 973
e 42 846
e 42 649
e 42 958
e 43 544
e 43 809
e 44 831
e 44 892
e 44 458
e 44 127
e 44 617
e 44 608
e 45 71
e 45 87
e 45 344
e 45 820
e 48 261
e 48 485
e 48 773
e 48 820
e 48 813
e 49 465
e 49 814
e 49 649
e 50 765
e 50 996
e 50 992
e 51 634
e 51 903
e 51 664
e 52 626
e 52 883
e 52 211
e 52 425
e 52 793
e 53 457
e 53 777
e 53 345
e 53 337
e 53 537
e 53 378
e 53 868
e 54 240
e 54 436
e 54 814
e 55 333
e 55 495
e 55 158
e 56 531
e 56 632
e 56 907
e 56 382
e 56 817
e 58 971
e 58 762
e 58 879
e 59 271
e 59 702
e 59 723
e 61 956
e 61 605
e 61 678
e 61 488
e 62 802
e 62 243
e 62 970
e 62 74
e 62 637
e 62 273
e 64 785
e 64 140
e 64 725
e 64 209
e 64 133
e 64 586
e 66 220
e 66 763
e 66 520
e 67 469
e 67 775
e 67 497
e 67 453
e 68 963
e 68 566
e 68 199
e 68 439
e 68 860
e 70 408
e 70 732
e 70 259
e 70 599
e 70 290
e 70 320
e 70 620
e 70 865
e 71 603
e 71 235
e 72 261
e 72 99
e 72 819
e 72 142
e 73 306
e 73 603
e 73 905
e 73 459
e 73 832
e 73 526
e 73 713
e 73 595
e 73 964
e 73 669
e 73 948
e 74 773
e 74 794
e 75 355
e 75 262
e 75 985
e 75 674
e 75 323
e 75 768
e 75 261
e 75 336
e 79 217
e 79 942
e 79 85
e 80 614
e 80 856
e 80 997
e 80 363
e 80 124
e 80 956
e 83 711
e 83 100
e 83 369
e 84 598
e 84 734
e 84 406
e 85 588
e 85 91
e 85 385
e 85 350
e 85 997
e 85 176
e 86 102
e 86 170
e 86 718
e 86 965
e 86 301
e 87 863
e 87 157
e 87 431
e 87 131
e 87 270
e 88 613
e 88 385
e 88 777
e 88 682
e 88 281
e 89 160
e 89 156
e 90 846
e 90 284
e 90 850
e 90 309
e 91 953
e 91 499
e 91 271
e 91 216
e 91 432
e 92 464
e 92 215
e 92 645
e 92 495
e 92 958
e 93 897
e 93 223
e 93 591
e 93 611
e 94 899
e 94 560
e 94 263
e 95 258
e 95 293
e 95 972
e 95 792
e 95 360
e 95 891
e 95 943
e 95 618
e 96 797
e 96 419
e 96 836
e 96 379
e 97 904
e 97 402
e 97 627
e 97 457
e 97 632
e 97 601
e 97 972
e 97 786
e 97 547
e 97 454
e 98 128
e 98 167
e 98 605
e 99 823
e 99 442
e 99 124
e 99 908
e 100 916
e 100 968
e 102 751
e 102 315
e 102 822
e 105 597
e 105 859
e 105 312
e 106 605
e 106 595
e 106 603
e 107 253
e 107 964
e 107 414
e 107 569
e 107 812
e 107 259
e 108 254
e 108 779
e 108 529
e 108 379
e 108 647
e 109 242
e 109 577
e 112 618
e 112 327
e 112 933
e 113 938
e 113 316
e 113 823
e 113 965
e 114 326
e 114 382
e 114 906
e 114 710
e 115 705
e 115 942
e 115 645
e 115 938
e 115 972
e 115 985
e 115 573
e 116 668
e 116 324
e 116 321
e 116 836
e 116 318
e 117 597
e 117 916
e 117 301
e 117 443
e 118 953
e 118 289
e 118 419
e 118 530
e 118 764
e 118 563
e 120 421
e 120 612
e 120 152
e 120 301
e 120 697
e 120 427
e 121 321
e 121 795
e 121 961
e 121 671
e 121 872
e 122 125
e 122 697
e 122 347
e 122 316
e 123 127
e 123 153
e 123 792
e 124 239
e 125 170
e 125 153
e 127 544
e 127 504
e 127 611
e 127 523
e 127 981
e 127 591
e 127 785
e 128 914
e 128 607
e 128 131
e 128 586
e 130 651
e 130 753
e 130 316
e 130 869
e 131 922
e 131 918
e 131 1000
e 131 221
e 131 879
e 131 714
e 131 369
e 132 702
e 132 259
e 132 560
e 132 593
e 132 832
e 132 381
e 132 846
e 133 263
e 133 977
e 135 465
e 135 714
e 135 796
e 135 360
e 135 892
e 136 662
e 136 766
e 137 358
e 137 153
e 137 315
e 137 693
e 139 891
e 139 971
e 140 253
e 140 383
e 140 413
e 140 572
e 140 829
e 140 501
e 140 653
e 140 972
e 141 994
e 141 475
e 141 169
e 142 972
e 142 970
e 142 543
e 142 846
e 142 364
e 142 861
e 143 671
e 143 270
e 143 507
e 144 999
e 144 1000
e 144 329
e 144 464
e 144 963
e 147 263
e 147 724
e 147 667
e 147 754
e 147 412
e 148 362
e 148 866
e 148 474
e 149 464
e 149 570
e 149 238
e 149 613
e 149 318
e 149 924
e 149 907
e 151 350
e 151 743
e 151 409
e 152 674
e 152 584
e 152 522
e 152 802
e 152 574
e 153 724
e 156 858
e 157 873
e 157 956
e 157 373
e 158 961
e 158 773
e 158 428
e 159 395
e 159 297
e 159 493
e 159 352
e 159 939
e 159 601
e 160 401
e 160 489
e 160 495
e 161 576
e 161 985
e 161 245
e 161 856
e 161 823
e 164 784
e 164 718
e 164 958
e 164 375
e 164 398
e 165 835
e 165 630
e 165 317
e 165 294
e 165 217
e 165 712
e 165 696
e 165 251
e 166 812
e 166 447
e 166 413
e 166 991
e 166 391
e 167 585
e 167 923
e 167 920
e 167 436
e 167 961
e 168 403
e 168 869
e 168 616
e 168 185
e 168 590
e 169 769
e 169 510
e 170 209
e 170 884
e 170 851
e 170 871
e 174 566
e 174 823
e 176 454
e 176 715
e 176 529
e 176 913
e 178 445
e 178 905
e 182 601
e 182 467
e 182 427
e 182 866
e 182 620
e 183 502
e 183 547
e 183 625
e 184 969
e 184 657
e 184 225
e 184 936
e 184 508
e 185 207
e 185 633
e 185 965
e 185 384
e 185 251
e 186 415
e 186 321
e 186 520
e 186 373
e 186 461
e 187 597
e 187 454
e 187 722
e 187 246
e 189 225
e 189 288
e 189 496
e 189 850
e 189 743
e 190 925
e 190 664
e 190 779
e 190 648
e 190 633
e 190 381
e 192 252
e 192 290
e 192 604
e 195 618
e 195 729
e 195 259
e 195 432
e 195 472
e 195 891
e 196 812
e 196 804
e 196 421
e 197 568
e 197 584
e 197 735
e 197 800
e 197 922
e 198 696
e 198 215
e 198 469
e 198 361
e 199 898
e 199 382
e 199 400
e 199 212
e 199 223
e 199 885
e 201 471
e 201 457
e 201 760
e 201 546
e 202 382
e 202 274
e 202 809
e 202 765
e 202 210
e 202 800
e 203 554
e 203 223
e 203 677
e 203 685
e 204 849
e 204 888
e 204 251
e 204 930
e 204 632
e 206 845
e 206 349
e 206 526
e 206 1000
e 206 407
e 206 863
e 206 789
e 207 797
e 207 675
e 207 664
e 207 598
e 208 491
e 208 919
e 208 455
e 209 329
e 209 228
e 209 345
e 209 561
e 209 542
e 210 773
e 211 922
e 211 877
e 211 918
e 211 480
e 211 402
e 211 913
e 212 294
e 212 524
e 212 964
e 212 563
e 212 923
e 213 406
e 213 819
e 214 996
e 214 897
e 214 667
e 215 403
e 216 430
e 216 931
e 216 820
e 216 398
e 217 661
e 217 502
e 217 378
e 217 724
e 217 287
e 217 989
e 218 315
e 218 668
e 218 662
e 219 593
e 219 806
e 219 740
e 220 334
e 220 314
e 220 807
e 220 504
e 221 785
e 221 982
e 221 237
e 221 907
e 221 585
e 223 317
e 223 898
e 223 339
e 224 723
e 224 970
e 224 806
e 225 441
e 225 625
e 225 880
e 226 919
e 226 440
e 226 242
e 227 327
e 227 295
e 227 359
e 228 523
e 228 869
e 228 626
e 228 794
e 229 815
e 229 895
e 229 697
e 229 587
e 229 351
e 230 272
e 230 649
e 230 336
e 230 256
e 234 604
e 234 921
e 234 683
e 234 636
e 234 435
e 234 478
e 235 664
e 236 751
e 236 619
e 237 867
e 237 241
e 237 848
e 237 527
e 237 284
e 237 888
e 237 332
e 237 904
e 238 923
e 238 786
e 239 990
e 239 928
e 240 241
e 240 633
e 241 442
e 241 324
e 241 859
e 241 692
e 241 710
e 241 916
e 242 673
e 242 879
e 243 857
e 243 795
e 243 530
e 244 447
e 244 825
e 244 358
e 244 751
e 244 380
e 244 942
e 244 723
e 245 461
e 245 710
e 246 455
e 246 402
e 246 655
e 246 390
e 246 794
e 247 582
e 247 361
e 247 842
e 247 380
e 247 390
e 247 606
e 248 324
e 248 538
e 248 648
e 249 808
e 249 973
e 249 651
e 249 285
e 249 514
e 250 743
e 250 846
e 250 549
e 250 744
e 250 712
e 250 954
e 252 842
e 252 337
e 252 732
e 253 350
e 253 501
e 254 419
e 254 375
e 255 677
e 255 421
e 255 697
e 255 577
e 255 898
e 255 781
e 256 582
e 256 442
e 256 474
e 257 832
e 257 485
e 257 790
e 257 607
e 258 675
e 258 344
e 259 291
e 259 824
e 259 996
e 260 793
e 260 530
e 260 941
e 260 401
e 260 590
e 260 413
e 261 521
e 261 613
e 261 472
e 261 475
e 262 984
e 262 302
e 262 428
e 262 743
e 262 929
e 263 849
e 263 894
e 263 909
e 263 845
e 263 435
e 263 999
e 266 955
e 266 904
e 266 689
e 266 822
e 266 327
e 267 783
e 267 283
e 267 583
e 267 925
e 268 793
e 268 276
e 268 737
e 269 427
e 269 323
e 269 273
e 270 488
e 270 460
e 270 842
e 270 274
e 271 705
e 272 929
e 272 525
e 272 895
e 272 559
e 273 409
e 273 910
e 273 322
e 274 449
e 274 771
e 274 908
e 274 560
e 274 595
e 276 934
e 276 835
e 279 619
e 279 872
e 279 333
e 279 568
e 279 546
e 279 717
e 280 691
e 280 604
e 280 626
e 281 284
e 281 537
e 281 880
e 281 725
e 281 302
e 282 458
e 282 714
e 282 634
e 283 474
e 283 907
e 283 927
e 283 612
e 283 472
e 284 661
e 284 861
e 285 869
e 285 880
e 285 674
e 287 843
e 287 494
e 287 569
e 287 858
e 287 756
e 287 772
e 287 677
e 287 445
e 288 669
e 288 870
e 289 554
e 289 801
e 289 639
e 289 985
e 290 952
e 290 602
e 290 434
e 290 868
e 290 990
e 290 295
e 291 317
e 291 942
e 291 677
e 292 724
e 292 527
e 292 879
e 292 756
e 292 637
e 292 785
e 293 607
e 293 875
e 294 332
e 294 586
e 295 444
e 296 701
e 296 685
e 296 553
e 297 330
e 297 809
e 297 493
e 297 653
e 297 574
e 298 987
e 298 908
e 298 404
e 300 437
e 300 689
e 300 792
e 300 848
e 301 812
e 302 452
e 302 599
e 302 803
e 302 850
e 303 860
e 303 610
e 303 760
e 304 895
e 304 743
e 304 390
e 304 307
e 304 850
e 306 875
e 306 768
e 306 407
e 306 721
e 307 812
e 307 537
e 307 800
e 309 538
e 309 569
e 309 679
e 309 619
e 309 815
e 311 627
e 311 695
e 311 896
e 312 683
e 312 572
e 314 462
e 314 753
e 315 332
e 315 790
e 315 941
e 316 825
e 316 649
e 316 887
e 316 824
e 317 773
e 317 963
e 317 610
e 317 888
e 318 920
e 318 776
e 320 765
e 321 662
e 321 521
e 321 739
e 322 328
e 322 591
e 323 529
e 323 714
e 323 816
e 323 601
e 324 673
e 325 920
e 325 803
e 325 636
e 325 924
e 325 998
e 325 664
e 325 945
e 325 761
e 325 471
e 326 445
e 326 441
e 327 811
e 327 455
e 327 709
e 327 958
e 328 713
e 328 509
e 328 547
e 328 433
e 330 384
e 330 763
e 330 823
e 332 454
e 332 406
e 332 808
e 332 554
e 332 858
e 332 546
e 333 627
e 334 504
e 334 507
e 334 590
e 334 718
e 335 992
e 335 729
e 335 446
e 335 987
e 336 710
e 336 955
e 336 917
e 337 572
e 339 527
e 339 530
e 344 383
e 345 392
e 345 683
e 345 956
e 347 739
e 347 769
e 347 861
e 349 543
e 349 612
e 350 510
e 351 362
e 351 458
e 351 385
e 352 877
e 352 414
e 355 561
e 358 678
e 358 777
e 358 519
e 359 393
e 359 865
e 359 877
e 360 673
e 360 540
e 361 369
e 361 614
e 361 997
e 361 814
e 361 596
e 361 787
e 361 933
e 362 999
e 363 393
e 363 514
e 364 518
e 364 495
e 364 804
e 365 963
e 365 441
e 365 544
e 365 964
e 365 683
e 366 590
e 366 380
e 366 425
e 367 849
e 367 888
e 367 518
e 367 400
e 367 850
e 369 385
e 369 855
e 369 566
e 369 924
e 372 803
e 372 678
e 372 787
e 372 589
e 372 664
e 373 677
e 373 465
e 373 911
e 375 892
e 378 745
e 378 527
e 379 797
e 380 786
e 380 989
e 382 815
e 382 410
e 382 395
e 382 786
e 382 540
e 384 386
e 384 645
e 384 730
e 384 892
e 384 446
e 385 391
e 385 416
e 386 781
e 386 743
e 389 843
e 389 605
e 389 943
e 390 455
e 391 478
e 391 744
e 391 764
e 391 964
e 392 956
e 392 826
e 392 705
e 392 449
e 392 921
e 393 398
e 393 458
e 395 494
e 395 968
e 395 1000
e 398 462
e 398 646
e 400 760
e 401 596
e 402 507
e 403 795
e 404 482
e 404 961
e 404 979
e 405 974
e 405 761
e 405 850
e 405 682
e 407 706
e 408 718
e 408 425
e 408 994
e 409 542
e 409 554
e 409 508
e 410 740
e 410 586
e 411 701
e 411 581
e 411 447
e 412 667
e 412 630
e 413 519
e 413 416
e 413 922
e 413 998
e 414 505
e 415 523
e 415 705
e 416 671
e 420 693
e 420 608
e 420 514
e 421 848
e 421 836
e 421 596
e 425 574
e 425 428
e 426 454
e 426 644
e 426 437
e 427 907
e 427 824
e 427 669
e 428 519
e 428 727
e 428 511
e 430 941
e 430 656
e 431 940
e 431 971
e 431 873
e 431 603
e 432 782
e 433 990
e 433 843
e 433 793
e 434 576
e 435 493
e 436 606
e 436 987
e 436 956
e 436 761
e 437 560
e 437 610
e 439 603
e 439 958
e 439 878
e 440 795
e 440 642
e 441 613
e 441 883
e 441 969
e 442 446
e 443 929
e 443 715
e 443 764
e 443 754
e 444 765
e 444 620
e 444 699
e 445 469
e 445 460
e 445 689
e 445 642
e 446 947
e 446 981
e 446 923
e 446 702
e 446 771
e 447 523
e 449 533
e 449 701
e 449 870
e 449 875
e 449 727
e 452 931
e 452 574
e 452 991
e 453 711
e 453 600
e 453 866
e 453 730
e 454 859
e 454 509
e 454 499
e 455 459
e 455 461
e 455 995
e 457 917
e 457 583
e 457 958
e 457 992
e 458 728
e 458 587
e 458 689
e 458 673
e 458 634
e 458 941
e 459 855
e 460 846
e 461 998
e 461 776
e 461 610
e 462 989
e 462 682
e 464 601
e 466 790
e 466 616
e 466 894
e 466 873
e 467 790
e 467 553
e 469 982
e 469 789
e 469 601
e 471 868
e 471 970
e 471 612
e 472 637
e 472 574
e 472 827
e 474 832
e 475 627
e 478 718
e 478 613
e 480 737
e 480 525
e 480 751
e 482 994
e 482 656
e 482 522
e 483 816
e 483 796
e 485 755
e 486 744
e 486 588
e 486 737
e 487 887
e 487 995
e 487 905
e 487 766
e 487 835
e 487 914
e 488 783
e 489 529
e 489 631
e 490 526
e 490 996
e 490 825
e 490 602
e 491 965
e 491 796
e 493 601
e 493 671
e 494 518
e 495 804
e 496 753
e 496 695
e 496 546
e 497 561
e 497 627
e 497 533
e 497 795
e 499 519
e 499 730
e 499 542
e 501 542
e 501 634
e 502 677
e 502 644
e 503 588
e 503 959
e 504 998
e 504 591
e 504 616
e 505 972
e 505 739
e 505 831
e 507 919
e 507 725
e 508 719
e 508 869
e 509 616
e 509 893
e 509 775
e 510 706
e 510 627
e 511 724
e 511 543
e 512 884
e 512 906
e 512 601
e 514 879
e 514 688
e 514 709
e 514 956
e 518 701
e 518 851
e 518 728
e 519 699
e 520 526
e 520 782
e 521 857
e 521 608
e 521 897
e 522 958
e 522 800
e 523 688
e 524 732
e 524 661
e 524 602
e 525 779
e 525 623
e 526 870
e 526 802
e 529 587
e 529 965
e 530 549
e 531 994
e 531 855
e 531 647
e 531 772
e 531 974
e 533 902
e 533 986
e 533 979
e 534 940
e 534 954
e 537 800
e 538 965
e 538 692
e 538 634
e 540 773
e 540 581
e 540 639
e 543 771
e 543 865
e 543 659
e 546 719
e 547 982
e 547 596
e 547 923
e 549 779
e 549 739
e 551 570
e 551 585
e 551 737
e 552 819
e 552 903
e 552 771
e 553 928
e 553 784
e 553 848
e 553 808
e 553 970
e 553 857
e 554 691
e 554 646
e 554 769
e 554 602
e 554 792
e 555 899
e 555 987
e 559 902
e 559 694
e 559 705
e 560 620
e 562 910
e 562 724
e 562 587
e 563 858
e 563 734
e 566 596
e 568 764
e 569 728
e 570 732
e 570 994
e 570 827
e 570 630
e 573 768
e 573 925
e 574 826
e 576 675
e 577 604
e 577 794
e 581 800
e 581 732
e 581 827
e 581 911
e 581 783
e 582 764
e 583 612
e 584 644
e 584 867
e 585 883
e 585 972
e 586 936
e 588 801
e 589 768
e 590 891
e 590 946
e 591 979
e 591 897
e 592 970
e 592 659
e 592 958
e 592 925
e 593 606
e 593 653
e 593 946
e 595 861
e 596 638
e 596 781
e 596 671
e 597 869
e 598 701
e 598 929
e 598 899
e 598 734
e 598 945
e 599 869
e 600 923
e 600 739
e 601 835
e 601 676
e 601 794
e 602 620
e 603 740
e 603 756
e 604 647
e 605 654
e 605 909
e 606 835
e 607 659
e 608 648
e 608 887
e 611 737
e 611 695
e 612 745
e 612 866
e 612 623
e 613 936
e 613 693
e 613 956
e 614 888
e 614 644
e 616 851
e 616 894
e 617 938
e 618 785
e 619 992
e 620 867
e 620 986
e 620 842
e 620 633
e 625 970
e 626 907
e 626 779
e 626 872
e 630 647
e 631 802
e 632 927
e 633 696
e 636 929
e 637 924
e 638 760
e 638 783
e 638 693
e 639 933
e 639 972
e 640 969
e 640 911
e 640 827
e 640 786
e 642 674
e 642 945
e 642 923
e 645 829
e 645 729
e 646 679
e 646 891
e 646 753
e 647 956
e 648 868
e 648 815
e 648 706
e 649 677
e 649 664
e 649 692
e 651 806
e 653 940
e 654 995
e 655 872
e 655 817
e 657 873
e 657 811
e 659 914
e 661 885
e 661 806
e 661 674
e 662 688
e 667 963
e 667 931
e 668 787
e 669 972
e 671 778
e 671 790
e 675 690
e 675 866
e 676 763
e 676 977
e 677 867
e 678 801
e 678 787
e 679 891
e 683 917
e 685 907
e 685 959
e 685 739
e 688 850
e 688 958
e 689 987
e 689 712
e 690 761
e 690 845
e 690 800
e 691 935
e 691 724
e 691 718
e 692 973
e 693 952
e 694 847
e 695 714
e 695 801
e 696 732
e 697 755
e 697 899
e 699 942
e 699 864
e 699 953
e 702 986
e 702 789
e 706 868
e 709 915
e 710 931
e 710 917
e 711 883
e 711 740
e 713 984
e 714 849
e 714 826
e 715 943
e 715 918
e 717 906
e 717 998
e 717 996
e 718 934
e 718 843
e 719 745
e 721 859
e 722 735
e 722 964
e 722 897
e 723 829
e 723 847
e 725 856
e 727 775
e 730 782
e 730 761
e 730 963
e 730 959
e 732 974
e 735 958
e 735 736
e 735 972
e 736 955
e 736 893
e 737 836
e 739 891
e 739 894
e 751 884
e 753 845
e 754 824
e 754 792
e 755 763
e 756 899
e 756 782
e 760 977
e 761 832
e 761 985
e 762 979
e 762 906
e 764 903
e 766 946
e 768 955
e 768 905
e 768 987
e 769 875
e 769 864
e 772 858
e 772 796
e 772 815
e 775 847
e 776 971
e 776 807
e 776 998
e 777 831
e 778 896
e 778 954
e 782 792
e 782 936
e 783 811
e 783 946
e 784 886
e 785 859
e 787 873
e 790 948
e 792 902
e 796 927
e 800 961
e 802 938
e 802 914
e 802 897
e 804 989
e 804 956
e 806 863
e 806 939
e 807 827
e 811 968
e 811 868
e 813 817
e 813 843
e 813 816
e 814 991
e 815 930
e 816 827
e 820 981
e 822 886
e 823 883
e 825 885
e 826 940
e 826 963
e 829 964
e 831 932
e 834 961
e 835 931
e 843 919
e 845 909
e 846 879
e 847 863
e 848 878
e 850 856
e 851 981
e 855 871
e 856 977
e 859 888
e 859 891
e 860 917
e 863 896
e 863 916
e 864 992
e 864 947
e 866 915
e 868 934
e 870 1000
e 872 990
e 873 894
e 878 891
e 879 932
e 883 930
e 884 972
e 886 996
e 886 928
e 892 954
e 893 999
e 898 917
e 902 938
e 902 947
e 903 963
e 906 972
e 906 923
e 908 923
e 909 968
e 910 935
e 913 998
e 915 920
e 918 974
e 919 996
e 921 948
e 928 968
e 928 932
e 929 938
e 935 984
e 942 990
e 952 970
e 959 961
e 969 990
e 970 994
e 997 998
