txt_Ins/graph-1000-467.txt
n 1000
e 0 260
e 0 328
e 0 999
e 0 585
e 1 701
e 1 718
e 1 371
e 1 811
e 1 482
e 1 242
e 2 279
e 2 431
e 2 405
e 3 646
e 3 524
e 3 411
e 4 533
e 4 636
e 4 883
e 4 477
e 6 558
e 6 767
e 6 234
e 6 354
e 8 572
e 8 821
e 8 79
e 8 444
e 8 319
e 8 235
e 10 580
e 10 138
e 10 227
e 10 405
e 10 297
e 10 720
e 10 327
e 10 782
e 11 135
e 11 655
e 11 344
e 11 383
e 11 629
e 15 224
e 15 122
e 15 213
e 15 237
e 16 554
e 16 728
e 16 826
e 16 600
e 16 870
e 16 259
e 16 793
e 17 833
e 17 432
e 17 327
e 17 904
e 17 392
e 18 805
e 18 267
e 18 630
e 18 358
e 18 600
e 18 792
e 18 755
e 18 215
e 18 622
e 18 310
e 20 380
e 20 95
e 20 325
e 20 500
e 21 155
e 21 252
e 21 513
e 21 444
e 21 576
e 22 261
e 22 815
e 22 584
e 22 931
e 23 32
e 23 528
e 23 811
e 23 196
e 24 599
e 24 287
e 24 616
e 25 653
e 25 985
e 25 156
e 25 588
e 25 88
e 27 382
e 27 864
e 27 47
e 27 892
e 28 569
e 28 815
e 28 262
e 28 177
e 29 694
e 29 687
e 29 743
e 29 511
e 29 409
e 29 37
e 29 241
e 29 689
e 30 927
e 30 278
e 30 693
e 30 724
e 30 182
e 30 53
e 30 972
e 30 433
e 30 136
e 30 173
e 30 124
e 30 862
e 30 492
e 31 854
e 31 209
e 31 789
e 31 49
e 31 913
e 31 456
e 31 40
e 31 796
e 31 530
e 32 928
e 32 212
e 32 502
e 32 709
e 32 750
e 33 150
e 33 989
e 33 254
e 33 592
e 33 675
e 34 213
e 34 36
e 34 496
e 35 901
e 35 108
e 35 890
e 35 938
e 35 887
e 35 385
e 36 698
e 36 553
e 36 446
e 36 360
e 36 964
e 36 624
e 37 121
e 37 208
e 37 329
e 37 792
e 38 425
e 38 768
e 38 42
e 38 506
e 38 789
e 38 613
e 38 484
e 40 234
e 40 576
e 40 728
e 40 893
e 40 833
e 40 722
e 40 972
e 41 845
e 41 648
e 41 957
e 42 543
e 42 808
e 43 830
e 43 891
e 43 457
e 43 126
e 43 616
e 43 607
e 44 70
e 44 86
e 44 343
e 44 819
e 47 260
e 47 484
e 47 772
e 47 819
e 47 812
e 48 464
e 48 813
e 48 648
e 49 764
e 49 995
e 49 991
e 50 633
e 50 902
e 50 663
e 51 625
e 51 882
e 51 210
e 51 424
e 51 792
e 52 456
e 52 776
e 52 344
e 52 336
e 52 536
e 52 377
e 52 867
e 53 239
e 53 435
e 53 813
e 54 332
e 54 494
e 54 157
e 55 530
e 55 631
e 55 906
e 55 381
e 55 816
e 57 970
e 57 761
e 57 878
e 58 270
e 58 701
e 58 722
e 60 955
e 60 604
e 60 677
e 60 487
e 61 801
e 61 242
e 61 969
e 61 73
e 61 636
e 61 272
e 63 784
e 63 139
e 63 724
e 63 208
e 63 132
e 63 585
e 65 219
e 65 762
e 65 519
e 66 468
e 66 774
e 66 496
e 66 452
e 67 962
e 67 565
e 67 198
e 67 438
e 67 859
e 69 407
e 69 731
e 69 258
e 69 598
e 69 289
e 69 319
e 69 619
e 69 864
e 70 602
e 70 234
e 71 260
e 71 98
e 71 818
e 71 141
e 72 305
e 72 602
e 72 904
e 72 458
e 72 831
e 72 525
e 72 712
e 72 594
e 72 963
e 72 668
e 72 947
e 73 772
e 73 793
e 74 354
e 74 261
e 74 984
e 74 673
e 74 322
e 74 767
e 74 260
e 74 335
e 78 216
e 78 941
e 78 84
e 79 613
e 79 855
e 79 996
e 79 362
e 79 123
e 79 955
e 82 710
e 82 99
e 82 368
e 83 597
e 83 733
e 83 405
e 84 587
e 84 90
e 84 384
e 84 349
e 84 996
e 84 175
e 85 101
e 85 169
e 85 717
e 85 964
e 85 300
e 86 862
e 86 156
e 86 430
e 86 130
e 86 269
e 87 612
e 87 384
e 87 776
e 87 681
e 87 280
e 88 159
e 88 155
e 89 845
e 89 283
e 89 849
e 89 308
e 90 952
e 90 498
e 90 270
e 90 215
e 90 431
e 91 463
e 91 214
e 91 644
e 91 494
e 91 957
e 92 896
e 92 222
e 92 590
e 92 610
e 93 898
e 93 559
e 93 262
e 94 257
e 94 292
e 94 971
e 94 791
e 94 359
e 94 890
e 94 942
e 94 617
e 95 796
e 95 418
e 95 835
e 95 378
e 96 903
e 96 401
e 96 626
e 96 456
e 96 631
e 96 600
e 96 971
e 96 785
e 96 546
e 96 453
e 97 127
e 97 166
e 97 604
e 98 822
e 98 441
e 98 123
e 98 907
e 99 915
e 99 967
e 101 750
e 101 314
e 101 821
e 104 596
e 104 858
e 104 311
e 105 604
e 105 594
e 105 602
e 106 252
e 106 963
e 106 413
e 106 568
e 106 811
e 106 258
e 107 253
e 107 778
e 107 528
e 107 378
e 107 646
e 108 241
e 108 576
e 111 617
e 111 326
e 111 932
e 112 937
e 112 315
e 112 822
e 112 964
e 113 325
e 113 381
e 113 905
e 113 709
e 114 704
e 114 941
e 114 644
e 114 937
e 114 971
e 114 984
e 114 572
e 115 667
e 115 323
e 115 320
e 115 835
e 115 317
e 116 596
e 116 915
e 116 300
e 116 442
e 117 952
e 117 288
e 117 418
e 117 529
e 117 763
e 117 562
e 119 420
e 119 611
e 119 151
e 119 300
e 119 696
e 119 426
e 120 320
e 120 794
e 120 960
e 120 670
e 120 871
e 121 124
e 121 696
e 121 346
e 121 315
e 122 126
e 122 152
e 122 791
e 123 238
e 124 169
e 124 152
e 126 543
e 126 503
e 126 610
e 126 522
e 126 980
e 126 590
e 126 784
e 127 913
e 127 606
e 127 130
e 127 585
e 129 650
e 129 752
e 129 315
e 129 868
e 130 921
e 130 917
e 130 999
e 130 220
e 130 878
e 130 713
e 130 368
e 131 701
e 131 258
e 131 559
e 131 592
e 131 831
e 131 380
e 131 845
e 132 262
e 132 976
e 134 464
e 134 713
e 134 795
e 134 359
e 134 891
e 135 661
e 135 765
e 136 357
e 136 152
e 136 314
e 136 692
e 138 890
e 138 970
e 139 252
e 139 382
e 139 412
e 139 571
e 139 828
e 139 500
e 139 652
e 139 971
e 140 993
e 140 474
e 140 168
e 141 971
e 141 969
e 141 542
e 141 845
e 141 363
e 141 860
e 142 670
e 142 269
e 142 506
e 143 998
e 143 999
e 143 328
e 143 463
e 143 962
e 146 262
e 146 723
e 146 666
e 146 753
e 146 411
e 147 361
e 147 865
e 147 473
e 148 463
e 148 569
e 148 237
e 148 612
e 148 317
e 148 923
e 148 906
e 150 349
e 150 742
e 150 408
e 151 673
e 151 583
e 151 521
e 151 801
e 151 573
e 152 723
e 155 857
e 156 872
e 156 955
e 156 372
e 157 960
e 157 772
e 157 427
e 158 394
e 158 296
e 158 492
e 158 351
e 158 938
e 158 600
e 159 400
e 159 488
e 159 494
e 160 575
e 160 984
e 160 244
e 160 855
e 160 822
e 163 783
e 163 717
e 163 957
e 163 374
e 163 397
e 164 834
e 164 629
e 164 316
e 164 293
e 164 216
e 164 711
e 164 695
e 164 250
e 165 811
e 165 446
e 165 412
e 165 990
e 165 390
e 166 584
e 166 922
e 166 919
e 166 435
e 166 960
e 167 402
e 167 868
e 167 615
e 167 184
e 167 589
e 168 768
e 168 509
e 169 208
e 169 883
e 169 850
e 169 870
e 173 565
e 173 822
e 175 453
e 175 714
e 175 528
e 175 912
e 177 444
e 177 904
e 181 600
e 181 466
e 181 426
e 181 865
e 181 619
e 182 501
e 182 546
e 182 624
e 183 968
e 183 656
e 183 224
e 183 935
e 183 507
e 184 206
e 184 632
e 184 964
e 184 383
e 184 250
e 185 414
e 185 320
e 185 519
e 185 372
e 185 460
e 186 596
e 186 453
e 186 721
e 186 245
e 188 224
e 188 287
e 188 495
e 188 849
e 188 742
e 189 924
e 189 663
e 189 778
e 189 647
e 189 632
e 189 380
e 191 251
e 191 289
e 191 603
e 194 617
e 194 728
e 194 258
e 194 431
e 194 471
e 194 890
e 195 811
e 195 803
e 195 420
e 196 567
e 196 583
e 196 734
e 196 799
e 196 921
e 197 695
e 197 214
e 197 468
e 197 360
e 198 897
e 198 381
e 198 399
e 198 211
e 198 222
e 198 884
e 200 470
e 200 456
e 200 759
e 200 545
e 201 381
e 201 273
e 201 808
e 201 764
e 201 209
e 201 799
e 202 553
e 202 222
e 202 676
e 202 684
e 203 848
e 203 887
e 203 250
e 203 929
e 203 631
e 205 844
e 205 348
e 205 525
e 205 999
e 205 406
e 205 862
e 205 788
e 206 796
e 206 674
e 206 663
e 206 597
e 207 490
e 207 918
e 207 454
e 208 328
e 208 227
e 208 344
e 208 560
e 208 541
e 209 772
e 210 921
e 210 876
e 210 917
e 210 479
e 210 401
e 210 912
e 211 293
e 211 523
e 211 963
e 211 562
e 211 922
e 212 405
e 212 818
e 213 995
e 213 896
e 213 666
e 214 402
e 215 429
e 215 930
e 215 819
e 215 397
e 216 660
e 216 501
e 216 377
e 216 723
e 216 286
e 216 988
e 217 314
e 217 667
e 217 661
e 218 592
e 218 805
e 218 739
e 219 333
e 219 313
e 219 806
e 219 503
e 220 784
e 220 981
e 220 236
e 220 906
e 220 584
e 222 316
e 222 897
e 222 338
e 223 722
e 223 969
e 223 805
e 224 440
e 224 624
e 224 879
e 225 918
e 225 439
e 225 241
e 226 326
e 226 294
e 226 358
e 227 522
e 227 868
e 227 625
e 227 793
e 228 814
e 228 894
e 228 696
e 228 586
e 228 350
e 229 271
e 229 648
e 229 335
e 229 255
e 233 603
e 233 920
e 233 682
e 233 635
e 233 434
e 233 477
e 234 663
e 235 750
e 235 618
e 236 866
e 236 240
e 236 847
e 236 526
e 236 283
e 236 887
e 236 331
e 236 903
e 237 922
e 237 785
e 238 989
e 238 927
e 239 240
e 239 632
e 240 441
e 240 323
e 240 858
e 240 691
e 240 709
e 240 915
e 241 672
e 241 878
e 242 856
e 242 794
e 242 529
e 243 446
e 243 824
e 243 357
e 243 750
e 243 379
e 243 941
e 243 722
e 244 460
e 244 709
e 245 454
e 245 401
e 245 654
e 245 389
e 245 793
e 246 581
e 246 360
e 246 841
e 246 379
e 246 389
e 246 605
e 247 323
e 247 537
e 247 647
e 248 807
e 248 972
e 248 650
e 248 284
e 248 513
e 249 742
e 249 845
e 249 548
e 249 743
e 249 711
e 249 953
e 251 841
e 251 336
e 251 731
e 252 349
e 252 500
e 253 418
e 253 374
e 254 676
e 254 420
e 254 696
e 254 576
e 254 897
e 254 780
e 255 581
e 255 441
e 255 473
e 256 831
e 256 484
e 256 789
e 256 606
e 257 674
e 257 343
e 258 290
e 258 823
e 258 995
e 259 792
e 259 529
e 259 940
e 259 400
e 259 589
e 259 412
e 260 520
e 260 612
e 260 471
e 260 474
e 261 983
e 261 301
e 261 427
e 261 742
e 261 928
e 262 848
e 262 893
e 262 908
e 262 844
e 262 434
e 262 998
e 265 954
e 265 903
e 265 688
e 265 821
e 265 326
e 266 782
e 266 282
e 266 582
e 266 924
e 267 792
e 267 275
e 267 736
e 268 426
e 268 322
e 268 272
e 269 487
e 269 459
e 269 841
e 269 273
e 270 704
e 271 928
e 271 524
e 271 894
e 271 558
e 272 408
e 272 909
e 272 321
e 273 448
e 273 770
e 273 907
e 273 559
e 273 594
e 275 933
e 275 834
e 278 618
e 278 871
e 278 332
e 278 567
e 278 545
e 278 716
e 279 690
e 279 603
e 279 625
e 280 283
e 280 536
e 280 879
e 280 724
e 280 301
e 281 457
e 281 713
e 281 633
e 282 473
e 282 906
e 282 926
e 282 611
e 282 471
e 283 660
e 283 860
e 284 868
e 284 879
e 284 673
e 286 842
e 286 493
e 286 568
e 286 857
e 286 755
e 286 771
e 286 676
e 286 444
e 287 668
e 287 869
e 288 553
e 288 800
e 288 638
e 288 984
e 289 951
e 289 601
e 289 433
e 289 867
e 289 989
e 289 294
e 290 316
e 290 941
e 290 676
e 291 723
e 291 526
e 291 878
e 291 755
e 291 636
e 291 784
e 292 606
e 292 874
e 293 331
e 293 585
e 294 443
e 295 700
e 295 684
e 295 552
e 296 329
e 296 808
e 296 492
e 296 652
e 296 573
e 297 986
e 297 907
e 297 403
e 299 436
e 299 688
e 299 791
e 299 847
e 300 811
e 301 451
e 301 598
e 301 802
e 301 849
e 302 859
e 302 609
e 302 759
e 303 894
e 303 742
e 303 389
e 303 306
e 303 849
e 305 874
e 305 767
e 305 406
e 305 720
e 306 811
e 306 536
e 306 799
e 308 537
e 308 568
e 308 678
e 308 618
e 308 814
e 310 626
e 310 694
e 310 895
e 311 682
e 311 571
e 313 461
e 313 752
e 314 331
e 314 789
e 314 940
e 315 824
e 315 648
e 315 886
e 315 823
e 316 772
e 316 962
e 316 609
e 316 887
e 317 919
e 317 775
e 319 764
e 320 661
e 320 520
e 320 738
e 321 327
e 321 590
e 322 528
e 322 713
e 322 815
e 322 600
e 323 672
e 324 919
e 324 802
e 324 635
e 324 923
e 324 997
e 324 663
e 324 944
e 324 760
e 324 470
e 325 444
e 325 440
e 326 810
e 326 454
e 326 708
e 326 957
e 327 712
e 327 508
e 327 546
e 327 432
e 329 383
e 329 762
e 329 822
e 331 453
e 331 405
e 331 807
e 331 553
e 331 857
e 331 545
e 332 626
e 333 503
e 333 506
e 333 589
e 333 717
e 334 991
e 334 728
e 334 445
e 334 986
e 335 709
e 335 954
e 335 916
e 336 571
e 338 526
e 338 529
e 343 382
e 344 391
e 344 682
e 344 955
e 346 738
e 346 768
e 346 860
e 348 542
e 348 611
e 349 509
e 350 361
e 350 457
e 350 384
e 351 876
e 351 413
e 354 560
e 357 677
e 357 776
e 357 518
e 358 392
e 358 864
e 358 876
e 359 672
e 359 539
e 360 368
e 360 613
e 360 996
e 360 813
e 360 595
e 360 786
e 360 932
e 361 998
e 362 392
e 362 513
e 363 517
e 363 494
e 363 803
e 364 962
e 364 440
e 364 543
e 364 963
e 364 682
e 365 589
e 365 379
e 365 424
e 366 848
e 366 887
e 366 517
e 366 399
e 366 849
e 368 384
e 368 854
e 368 565
e 368 923
e 371 802
e 371 677
e 371 786
e 371 588
e 371 663
e 372 676
e 372 464
e 372 910
e 374 891
e 377 744
e 377 526
e 378 796
e 379 785
e 379 988
e 381 814
e 381 409
e 381 394
e 381 785
e 381 539
e 383 385
e 383 644
e 383 729
e 383 891
e 383 445
e 384 390
e 384 415
e 385 780
e 385 742
e 388 842
e 388 604
e 388 942
e 389 454
e 390 477
e 390 743
e 390 763
e 390 963
e 391 955
e 391 825
e 391 704
e 391 448
e 391 920
e 392 397
e 392 457
e 394 493
e 394 967
e 394 999
e 397 461
e 397 645
e 399 759
e 400 595
e 401 506
e 402 794
e 403 481
e 403 960
e 403 978
e 404 973
e 404 760
e 404 849
e 404 681
e 406 705
e 407 717
e 407 424
e 407 993
e 408 541
e 408 553
e 408 507
e 409 739
e 409 585
e 410 700
e 410 580
e 410 446
e 411 666
e 411 629
e 412 518
e 412 415
e 412 921
e 412 997
e 413 504
e 414 522
e 414 704
e 415 670
e 419 692
e 419 607
e 419 513
e 420 847
e 420 835
e 420 595
e 424 573
e 424 427
e 425 453
e 425 643
e 425 436
e 426 906
e 426 823
e 426 668
e 427 518
e 427 726
e 427 510
e 429 940
e 429 655
e 430 939
e 430 970
e 430 872
e 430 602
e 431 781
e 432 989
e 432 842
e 432 792
e 433 575
e 434 492
e 435 605
e 435 986
e 435 955
e 435 760
e 436 559
e 436 609
e 438 602
e 438 957
e 438 877
e 439 794
e 439 641
e 440 612
e 440 882
e 440 968
e 441 445
e 442 928
e 442 714
e 442 763
e 442 753
e 443 764
e 443 619
e 443 698
e 444 468
e 444 459
e 444 688
e 444 641
e 445 946
e 445 980
e 445 922
e 445 701
e 445 770
e 446 522
e 448 532
e 448 700
e 448 869
e 448 874
e 448 726
e 451 930
e 451 573
e 451 990
e 452 710
e 452 599
e 452 865
e 452 729
e 453 858
e 453 508
e 453 498
e 454 458
e 454 460
e 454 994
e 456 916
e 456 582
e 456 957
e 456 991
e 457 727
e 457 586
e 457 688
e 457 672
e 457 633
e 457 940
e 458 854
e 459 845
e 460 997
e 460 775
e 460 609
e 461 988
e 461 681
e 463 600
e 465 789
e 465 615
e 465 893
e 465 872
e 466 789
e 466 552
e 468 981
e 468 788
e 468 600
e 470 867
e 470 969
e 470 611
e 471 636
e 471 573
e 471 826
e 473 831
e 474 626
e 477 717
e 477 612
e 479 736
e 479 524
e 479 750
e 481 993
e 481 655
e 481 521
e 482 815
e 482 795
e 484 754
e 485 743
e 485 587
e 485 736
e 486 886
e 486 994
e 486 904
e 486 765
e 486 834
e 486 913
e 487 782
e 488 528
e 488 630
e 489 525
e 489 995
e 489 824
e 489 601
e 490 964
e 490 795
e 492 600
e 492 670
e 493 517
e 494 803
e 495 752
e 495 694
e 495 545
e 496 560
e 496 626
e 496 532
e 496 794
e 498 518
e 498 729
e 498 541
e 500 541
e 500 633
e 501 676
e 501 643
e 502 587
e 502 958
e 503 997
e 503 590
e 503 615
e 504 971
e 504 738
e 504 830
e 506 918
e 506 724
e 507 718
e 507 868
e 508 615
e 508 892
e 508 774
e 509 705
e 509 626
e 510 723
e 510 542
e 511 883
e 511 905
e 511 600
e 513 878
e 513 687
e 513 708
e 513 955
e 517 700
e 517 850
e 517 727
e 518 698
e 519 525
e 519 781
e 520 856
e 520 607
e 520 896
e 521 957
e 521 799
e 522 687
e 523 731
e 523 660
e 523 601
e 524 778
e 524 622
e 525 869
e 525 801
e 528 586
e 528 964
e 529 548
e 530 993
e 530 854
e 530 646
e 530 771
e 530 973
e 532 901
e 532 985
e 532 978
e 533 939
e 533 953
e 536 799
e 537 964
e 537 691
e 537 633
e 539 772
e 539 580
e 539 638
e 542 770
e 542 864
e 542 658
e 545 718
e 546 981
e 546 595
e 546 922
e 548 778
e 548 738
e 550 569
e 550 584
e 550 736
e 551 818
e 551 902
e 551 770
e 552 927
e 552 783
e 552 847
e 552 807
e 552 969
e 552 856
e 553 690
e 553 645
e 553 768
e 553 601
e 553 791
e 554 898
e 554 986
e 558 901
e 558 693
e 558 704
e 559 619
e 561 909
e 561 723
e 561 586
e 562 857
e 562 733
e 565 595
e 567 763
e 568 727
e 569 731
e 569 993
e 569 826
e 569 629
e 572 767
e 572 924
e 573 825
e 575 674
e 576 603
e 576 793
e 580 799
e 580 731
e 580 826
e 580 910
e 580 782
e 581 763
e 582 611
e 583 643
e 583 866
e 584 882
e 584 971
e 585 935
e 587 800
e 588 767
e 589 890
e 589 945
e 590 978
e 590 896
e 591 969
e 591 658
e 591 957
e 591 924
e 592 605
e 592 652
e 592 945
e 594 860
e 595 637
e 595 780
e 595 670
e 596 868
e 597 700
e 597 928
e 597 898
e 597 733
e 597 944
e 598 868
e 599 922
e 599 738
e 600 834
e 600 675
e 600 793
e 601 619
e 602 739
e 602 755
e 603 646
e 604 653
e 604 908
e 605 834
e 606 658
e 607 647
e 607 886
e 610 736
e 610 694
e 611 744
e 611 865
e 611 622
e 612 935
e 612 692
e 612 955
e 613 887
e 613 643
e 615 850
e 615 893
e 616 937
e 617 784
e 618 991
e 619 866
e 619 985
e 619 841
e 619 632
e 624 969
e 625 906
e 625 778
e 625 871
e 629 646
e 630 801
e 631 926
e 632 695
e 635 928
e 636 923
e 637 759
e 637 782
e 637 692
e 638 932
e 638 971
e 639 968
e 639 910
e 639 826
e 639 785
e 641 673
e 641 944
e 641 922
e 644 828
e 644 728
e 645 678
e 645 890
e 645 752
e 646 955
e 647 867
e 647 814
e 647 705
e 648 676
e 648 663
e 648 691
e 650 805
e 652 939
e 653 994
e 654 871
e 654 816
e 656 872
e 656 810
e 658 913
e 660 884
e 660 805
e 660 673
e 661 687
e 666 962
e 666 930
e 667 786
e 668 971
e 670 777
e 670 789
e 674 689
e 674 865
e 675 762
e 675 976
e 676 866
e 677 800
e 677 786
e 678 890
e 682 916
e 684 906
e 684 958
e 684 738
e 687 849
e 687 957
e 688 986
e 688 711
e 689 760
e 689 844
e 689 799
e 690 934
e 690 723
e 690 717
e 691 972
e 692 951
e 693 846
e 694 713
e 694 800
e 695 731
e 696 754
e 696 898
e 698 941
e 698 863
e 698 952
e 701 985
e 701 788
e 705 867
e 708 914
e 709 930
e 709 916
e 710 882
e 710 739
e 712 983
e 713 848
e 713 825
e 714 942
e 714 917
e 716 905
e 716 997
e 716 995
e 717 933
e 717 842
e 718 744
e 720 858
e 721 734
e 721 963
e 721 896
e 722 828
e 722 846
e 724 855
e 726 774
e 729 781
e 729 760
e 729 962
e 729 958
e 731 973
e 734 957
e 734 735
e 734 971
e 735 954
e 735 892
e 736 835
e 738 890
e 738 893
e 750 883
e 752 844
e 753 823
e 753 791
e 754 762
e 755 898
e 755 781
e 759 976
e 760 831
e 760 984
e 761 978
e 761 905
e 763 902
e 765 945
e 767 954
e 767 904
e 767 986
e 768 874
e 768 863
e 771 857
e 771 795
e 771 814
e 774 846
e 775 970
e 775 806
e 775 997
e 776 830
e 777 895
e 777 953
e 781 791
e 781 935
e 782 810
e 782 945
e 783 885
e 784 858
e 786 872
e 789 947
e 791 901
e 795 926
e 799 960
e 801 937
e 801 913
e 801 896
e 803 988
e 803 955
e 805 862
e 805 938
e 806 826
e 810 967
e 810 867
e 812 816
e 812 842
e 812 815
e 813 990
e 814 929
e 815 826
e 819 980
e 821 885
e 822 882
e 824 884
e 825 939
e 825 962
e 828 963
e 830 931
e 833 960
e 834 930
e 842 918
e 844 908
e 845 878
e 846 862
e 847 877
e 849 855
e 850 980
e 854 870
e 855 976
e 858 887
e 858 890
e 859 916
e 862 895
e 862 915
e 863 991
e 863 946
e 865 914
e 867 933
e 869 999
e 871 989
e 872 893
e 877 890
e 878 931
e 882 929
e 883 971
e 885 995
e 885 927
e 891 953
e 892 998
e 897 916
e 901 937
e 901 946
e 902 962
e 905 971
e 905 922
e 907 922
e 908 967
e 909 934
e 912 997
e 914 919
e 917 973
e 918 995
e 920 947
e 927 967
e 927 931
e 928 937
e 934 983
e 941 989
e 951 969
e 958 960
e 968 989
e 969 993
e 996 997
